sing20150221.12
TTAA  71121 48698
99007 29059 07008 00074 28658 05512 92760 21423 07006
85491 17418 25504 70135 12061 16512 50587 04956 22010
40759 15360 11013 30969 31339 06026 25095 41934 06525
20242 53750 07034 15420 69550 10051 10655 74750 06504
88113 80156 11047
77122 11081 42971=
TTCC  71127 48698
70861 80375 25035
88999
77999=
TTDD  7112/ 48698
11968 74956 22956 75350 33931 73950 44859 77350 55803
76563 66783 76374 77776 76376 88656 82342 99637 81750
11628 81503 22616 81500
21212 11984 33506 22967 31512 33951 34012 44935 30012
55915 27012 66858 24525 77824 25533 88808 26033 99774
25041 11760 25538 22746 26039 33732 26034 44704 25036
55690 25533 66677 25031 77663 25027 88650 25028 99624
26020 11616 26018=
